HUN,8,6,225
2,24,1,8,3,23,4,30,0,9,5,14
5,18,4,14,2,5,3,15,0,18,1,27
0,3,5,19,1,16,2,29,4,12,3,10
0,29,5,30,4,18,1,2,3,1,2,13
2,3,0,20,4,14,1,21,5,2,3,30
4,3,0,13,5,27,1,28,3,11,2,25
5,17,3,12,1,1,4,19,0,4,2,7
2,13,4,19,0,9,3,7,5,30,1,22
